; ./sv-comp/./2015-05-26/LIA/Eldarica/linear-tree-like/four1.smt2-b-0034_000.smt2
(set-logic HORN)

(declare-fun |predh41_5| ( Int Int Int Int Int Int Int Int Int Int Int Int Int Int Int Int Int Int Int Int Int Int Int Int Int Int Int Int Int Int Int Int Int Int Int Int Int Int Int Int ) Bool)
(declare-fun |predh21_11| ( Int Int Int Int Int Int Int Int Int Int Int Int Int Int Int Int Int Int Int Int Int Int Int Int Int Int Int Int Int Int Int Int Int Int Int Int Int Int Int Int ) Bool)
(declare-fun |predh52_2| ( Int Int Int Int Int Int Int Int Int Int Int Int Int Int Int Int Int Int Int Int Int Int Int Int Int Int Int Int Int Int Int Int Int Int Int Int Int Int Int Int ) Bool)
(declare-fun |predh34_7| ( Int Int Int Int Int Int Int Int Int Int Int Int Int Int Int Int Int Int Int Int Int Int Int Int Int Int Int Int Int Int Int Int Int Int Int Int Int Int Int Int ) Bool)
(declare-fun |predh73_15| ( Int Int Int Int Int Int Int Int Int Int Int Int Int Int Int Int Int Int Int Int Int Int Int Int Int Int Int Int Int Int Int Int Int Int Int Int Int Int Int Int ) Bool)
(declare-fun |predh45_4| ( Int Int Int Int Int Int Int Int Int Int Int Int Int Int Int Int Int Int Int Int Int Int Int Int Int Int Int Int Int Int Int Int Int Int Int Int Int Int Int Int ) Bool)
(declare-fun |predh18_12| ( Int Int Int Int Int Int Int Int Int Int Int Int Int Int Int Int Int Int Int Int Int Int Int Int Int Int Int Int Int Int Int Int Int Int Int Int Int Int Int Int ) Bool)
(declare-fun |predh7_13| ( Int Int Int Int Int Int Int Int Int Int Int Int Int Int Int Int Int Int Int Int Int Int Int Int Int Int Int Int Int Int Int Int Int Int Int Int Int Int Int Int ) Bool)
(declare-fun |predh83_14| ( Int Int Int Int Int Int Int Int Int Int Int Int Int Int Int Int Int Int Int Int Int Int Int Int Int Int Int Int Int Int Int Int Int Int Int Int Int Int Int Int ) Bool)
(declare-fun |predh17_16| ( Int Int Int Int Int Int Int Int Int Int Int Int Int Int Int Int Int Int Int Int Int Int Int Int Int Int Int Int Int Int Int Int Int Int Int Int Int Int Int Int ) Bool)
(declare-fun |predh7_17| ( Int Int Int Int Int Int Int Int Int Int Int Int Int Int Int Int Int Int Int Int Int Int Int Int Int Int Int Int Int Int Int Int Int Int Int Int Int Int Int Int ) Bool)
(declare-fun |predh48_3| ( Int Int Int Int Int Int Int Int Int Int Int Int Int Int Int Int Int Int Int Int Int Int Int Int Int Int Int Int Int Int Int Int Int Int Int Int Int Int Int Int ) Bool)
(declare-fun |predh28_9| ( Int Int Int Int Int Int Int Int Int Int Int Int Int Int Int Int Int Int Int Int Int Int Int Int Int Int Int Int Int Int Int Int Int Int Int Int Int Int Int Int ) Bool)
(declare-fun |predh38_6| ( Int Int Int Int Int Int Int Int Int Int Int Int Int Int Int Int Int Int Int Int Int Int Int Int Int Int Int Int Int Int Int Int Int Int Int Int Int Int Int Int ) Bool)
(declare-fun |predh25_10| ( Int Int Int Int Int Int Int Int Int Int Int Int Int Int Int Int Int Int Int Int Int Int Int Int Int Int Int Int Int Int Int Int Int Int Int Int Int Int Int Int ) Bool)
(declare-fun |predh57_1| ( Int Int Int Int Int Int Int Int Int Int Int Int Int Int Int Int Int Int Int Int Int Int Int Int Int Int Int Int Int Int Int Int Int Int Int Int Int Int Int Int ) Bool)
(declare-fun |predh31_8| ( Int Int Int Int Int Int Int Int Int Int Int Int Int Int Int Int Int Int Int Int Int Int Int Int Int Int Int Int Int Int Int Int Int Int Int Int Int Int Int Int ) Bool)

(assert
  (forall ( (A Int) (B Int) (C Int) (D Int) (E Int) (F Int) (G Int) (H Int) (I Int) (J Int) (K Int) (L Int) (M Int) (N Int) (O Int) (P Int) (Q Int) (R Int) (S Int) (T Int) (U Int) (V Int) (W Int) (X Int) (Y Int) (Z Int) (A1 Int) (B1 Int) (C1 Int) (D1 Int) (E1 Int) (F1 Int) (G1 Int) (H1 Int) (I1 Int) (J1 Int) (K1 Int) (L1 Int) (M1 Int) (N1 Int) ) 
    (=>
      (and
        (predh52_2 N1
           M1
           L1
           K1
           J1
           I1
           H1
           G1
           F1
           E1
           D1
           C1
           B1
           A1
           Z
           Y
           X
           W
           V
           U
           T
           S
           R
           Q
           P
           O
           N
           M
           L
           K
           J
           I
           H
           G
           F
           E
           D
           C
           B
           A)
        (and (<= 0 A) (<= 0 (+ L (* (- 1) A))))
      )
      (predh57_1 N1
           M1
           L1
           K1
           J1
           I1
           H1
           G1
           F1
           E1
           D1
           C1
           B1
           A1
           Z
           Y
           X
           W
           V
           U
           T
           S
           R
           Q
           P
           O
           N
           M
           L
           K
           J
           I
           H
           G
           F
           E
           D
           C
           B
           A)
    )
  )
)
(assert
  (forall ( (A Int) (B Int) (C Int) (D Int) (E Int) (F Int) (G Int) (H Int) (I Int) (J Int) (K Int) (L Int) (M Int) (N Int) (O Int) (P Int) (Q Int) (R Int) (S Int) (T Int) (U Int) (V Int) (W Int) (X Int) (Y Int) (Z Int) (A1 Int) (B1 Int) (C1 Int) (D1 Int) (E1 Int) (F1 Int) (G1 Int) (H1 Int) (I1 Int) (J1 Int) (K1 Int) (L1 Int) (M1 Int) (N1 Int) (O1 Int) ) 
    (=>
      (and
        (predh48_3 N1
           M1
           L1
           K1
           J1
           I1
           H1
           G1
           F1
           E1
           D1
           C1
           B1
           A1
           Z
           Y
           X
           W
           V
           U
           T
           S
           R
           Q
           P
           O
           N
           M
           L
           K
           J
           I
           H
           G
           F
           E
           D
           C
           B
           A)
        (and (<= 0 B) (<= (- 1) (+ L (* (- 1) B))))
      )
      (predh52_2 N1
           M1
           L1
           K1
           J1
           I1
           H1
           G1
           F1
           E1
           D1
           C1
           B1
           A1
           Z
           Y
           X
           W
           V
           U
           T
           S
           R
           Q
           P
           O
           N
           M
           L
           K
           J
           I
           H
           G
           F
           O1
           D
           C
           B
           A)
    )
  )
)
(assert
  (forall ( (A Int) (B Int) (C Int) (D Int) (E Int) (F Int) (G Int) (H Int) (I Int) (J Int) (K Int) (L Int) (M Int) (N Int) (O Int) (P Int) (Q Int) (R Int) (S Int) (T Int) (U Int) (V Int) (W Int) (X Int) (Y Int) (Z Int) (A1 Int) (B1 Int) (C1 Int) (D1 Int) (E1 Int) (F1 Int) (G1 Int) (H1 Int) (I1 Int) (J1 Int) (K1 Int) (L1 Int) (M1 Int) (N1 Int) ) 
    (=>
      (and
        (predh45_4 N1
           M1
           L1
           K1
           J1
           I1
           H1
           G1
           F1
           E1
           D1
           C1
           B1
           A1
           Z
           Y
           X
           W
           V
           U
           T
           S
           R
           Q
           P
           O
           N
           M
           L
           K
           J
           I
           H
           G
           F
           E
           D
           C
           B
           A)
        (and (<= 0 A) (<= 1 (+ (* (- 1) N) A)))
      )
      (predh48_3 N1
           M1
           L1
           K1
           J1
           I1
           H1
           G1
           F1
           E1
           D1
           C1
           B1
           A1
           Z
           Y
           X
           W
           V
           U
           T
           S
           R
           Q
           P
           O
           N
           M
           L
           K
           J
           I
           H
           G
           F
           E
           D
           C
           B
           A)
    )
  )
)
(assert
  (forall ( (A Int) (B Int) (C Int) (D Int) (E Int) (F Int) (G Int) (H Int) (I Int) (J Int) (K Int) (L Int) (M Int) (N Int) (O Int) (P Int) (Q Int) (R Int) (S Int) (T Int) (U Int) (V Int) (W Int) (X Int) (Y Int) (Z Int) (A1 Int) (B1 Int) (C1 Int) (D1 Int) (E1 Int) (F1 Int) (G1 Int) (H1 Int) (I1 Int) (J1 Int) (K1 Int) (L1 Int) (M1 Int) (N1 Int) ) 
    (=>
      (and
        (predh41_5 N1
           M1
           L1
           K1
           J1
           I1
           H1
           G1
           F1
           E1
           D1
           C1
           B1
           A1
           Z
           Y
           X
           W
           V
           U
           T
           S
           R
           Q
           P
           O
           N
           M
           L
           K
           J
           I
           H
           G
           F
           E
           D
           C
           B
           A)
        (and (<= 0 B) (<= (- 1) (+ N (* (- 1) B))))
      )
      (predh45_4 N1
           M1
           L1
           K1
           J1
           I1
           H1
           G1
           F1
           E1
           D1
           C1
           B1
           A1
           Z
           Y
           X
           W
           V
           U
           T
           S
           R
           Q
           P
           O
           N
           M
           L
           K
           J
           I
           H
           G
           F
           E
           D
           C
           B
           A)
    )
  )
)
(assert
  (forall ( (A Int) (B Int) (C Int) (D Int) (E Int) (F Int) (G Int) (H Int) (I Int) (J Int) (K Int) (L Int) (M Int) (N Int) (O Int) (P Int) (Q Int) (R Int) (S Int) (T Int) (U Int) (V Int) (W Int) (X Int) (Y Int) (Z Int) (A1 Int) (B1 Int) (C1 Int) (D1 Int) (E1 Int) (F1 Int) (G1 Int) (H1 Int) (I1 Int) (J1 Int) (K1 Int) (L1 Int) (M1 Int) (N1 Int) ) 
    (=>
      (and
        (predh38_6 N1
           M1
           L1
           K1
           J1
           I1
           H1
           G1
           F1
           E1
           D1
           C1
           B1
           A1
           Z
           Y
           X
           W
           V
           U
           T
           S
           R
           Q
           P
           O
           N
           M
           L
           K
           J
           I
           H
           G
           F
           E
           D
           C
           B
           A)
        (and (<= 0 A) (<= 0 (+ (* (- 1) L) A)))
      )
      (predh41_5 N1
           M1
           L1
           K1
           J1
           I1
           H1
           G1
           F1
           E1
           D1
           C1
           B1
           A1
           Z
           Y
           X
           W
           V
           U
           T
           S
           R
           Q
           P
           O
           N
           M
           L
           K
           J
           I
           H
           G
           F
           E
           D
           C
           B
           A)
    )
  )
)
(assert
  (forall ( (A Int) (B Int) (C Int) (D Int) (E Int) (F Int) (G Int) (H Int) (I Int) (J Int) (K Int) (L Int) (M Int) (N Int) (O Int) (P Int) (Q Int) (R Int) (S Int) (T Int) (U Int) (V Int) (W Int) (X Int) (Y Int) (Z Int) (A1 Int) (B1 Int) (C1 Int) (D1 Int) (E1 Int) (F1 Int) (G1 Int) (H1 Int) (I1 Int) (J1 Int) (K1 Int) (L1 Int) (M1 Int) (N1 Int) ) 
    (=>
      (and
        (predh34_7 N1
           M1
           L1
           K1
           J1
           I1
           H1
           G1
           F1
           E1
           D1
           C1
           B1
           A1
           Z
           Y
           X
           W
           V
           U
           T
           S
           R
           Q
           P
           O
           N
           M
           L
           K
           J
           I
           H
           G
           F
           E
           D
           C
           B
           A)
        (and (<= 0 B) (<= 0 (+ L (* (- 1) B))))
      )
      (predh38_6 N1
           M1
           L1
           K1
           J1
           I1
           H1
           G1
           F1
           E1
           D1
           C1
           B1
           A1
           Z
           Y
           X
           W
           V
           U
           T
           S
           R
           Q
           P
           O
           N
           M
           L
           K
           J
           I
           H
           G
           F
           E
           D
           C
           B
           A)
    )
  )
)
(assert
  (forall ( (A Int) (B Int) (C Int) (D Int) (E Int) (F Int) (G Int) (H Int) (I Int) (J Int) (K Int) (L Int) (M Int) (N Int) (O Int) (P Int) (Q Int) (R Int) (S Int) (T Int) (U Int) (V Int) (W Int) (X Int) (Y Int) (Z Int) (A1 Int) (B1 Int) (C1 Int) (D1 Int) (E1 Int) (F1 Int) (G1 Int) (H1 Int) (I1 Int) (J1 Int) (K1 Int) (L1 Int) (M1 Int) (N1 Int) ) 
    (=>
      (and
        (predh31_8 N1
           M1
           L1
           K1
           J1
           I1
           H1
           G1
           F1
           E1
           D1
           C1
           B1
           A1
           Z
           Y
           X
           W
           V
           U
           T
           S
           R
           Q
           P
           O
           N
           M
           L
           K
           J
           I
           H
           G
           F
           E
           D
           C
           B
           A)
        (and (<= 0 A) (<= 0 (+ (* (- 1) N) A)))
      )
      (predh34_7 N1
           M1
           L1
           K1
           J1
           I1
           H1
           G1
           F1
           E1
           D1
           C1
           B1
           A1
           Z
           Y
           X
           W
           V
           U
           T
           S
           R
           Q
           P
           O
           N
           M
           L
           K
           J
           I
           H
           G
           F
           E
           D
           C
           B
           A)
    )
  )
)
(assert
  (forall ( (A Int) (B Int) (C Int) (D Int) (E Int) (F Int) (G Int) (H Int) (I Int) (J Int) (K Int) (L Int) (M Int) (N Int) (O Int) (P Int) (Q Int) (R Int) (S Int) (T Int) (U Int) (V Int) (W Int) (X Int) (Y Int) (Z Int) (A1 Int) (B1 Int) (C1 Int) (D1 Int) (E1 Int) (F1 Int) (G1 Int) (H1 Int) (I1 Int) (J1 Int) (K1 Int) (L1 Int) (M1 Int) (N1 Int) ) 
    (=>
      (and
        (predh28_9 N1
           M1
           L1
           K1
           J1
           I1
           H1
           G1
           F1
           E1
           D1
           C1
           B1
           A1
           Z
           Y
           X
           W
           V
           U
           T
           S
           R
           Q
           P
           O
           N
           M
           L
           K
           J
           I
           H
           G
           F
           E
           D
           C
           B
           A)
        (and (<= 0 B) (<= 0 (+ N (* (- 1) B))))
      )
      (predh31_8 N1
           M1
           L1
           K1
           J1
           I1
           H1
           G1
           F1
           E1
           D1
           C1
           B1
           A1
           Z
           Y
           X
           W
           V
           U
           T
           S
           R
           Q
           P
           O
           N
           M
           L
           K
           J
           I
           H
           G
           F
           E
           D
           C
           B
           A)
    )
  )
)
(assert
  (forall ( (A Int) (B Int) (C Int) (D Int) (E Int) (F Int) (G Int) (H Int) (I Int) (J Int) (K Int) (L Int) (M Int) (N Int) (O Int) (P Int) (Q Int) (R Int) (S Int) (T Int) (U Int) (V Int) (W Int) (X Int) (Y Int) (Z Int) (A1 Int) (B1 Int) (C1 Int) (D1 Int) (E1 Int) (F1 Int) (G1 Int) (H1 Int) (I1 Int) (J1 Int) (K1 Int) (L1 Int) (M1 Int) (N1 Int) ) 
    (=>
      (and
        (predh25_10 N1
            M1
            L1
            K1
            J1
            I1
            H1
            G1
            F1
            E1
            D1
            C1
            B1
            A1
            Z
            Y
            X
            W
            V
            U
            T
            S
            R
            Q
            P
            O
            N
            M
            L
            K
            J
            I
            H
            G
            F
            E
            D
            C
            B
            A)
        (and (<= 0 A) (<= 0 (+ (* (- 1) L) A)))
      )
      (predh28_9 N1
           M1
           L1
           K1
           J1
           I1
           H1
           G1
           F1
           E1
           D1
           C1
           B1
           A1
           Z
           Y
           X
           W
           V
           U
           T
           S
           R
           Q
           P
           O
           N
           M
           L
           K
           J
           I
           H
           G
           F
           E
           D
           C
           B
           A)
    )
  )
)
(assert
  (forall ( (A Int) (B Int) (C Int) (D Int) (E Int) (F Int) (G Int) (H Int) (I Int) (J Int) (K Int) (L Int) (M Int) (N Int) (O Int) (P Int) (Q Int) (R Int) (S Int) (T Int) (U Int) (V Int) (W Int) (X Int) (Y Int) (Z Int) (A1 Int) (B1 Int) (C1 Int) (D1 Int) (E1 Int) (F1 Int) (G1 Int) (H1 Int) (I1 Int) (J1 Int) (K1 Int) (L1 Int) (M1 Int) (N1 Int) (O1 Int) ) 
    (=>
      (and
        (predh21_11 N1
            M1
            L1
            K1
            J1
            I1
            H1
            G1
            F1
            E1
            D1
            C1
            B1
            A1
            Z
            Y
            X
            W
            V
            U
            T
            S
            R
            Q
            P
            O
            N
            M
            L
            K
            J
            I
            H
            G
            F
            E
            D
            C
            B
            A)
        (and (<= 0 B) (<= 0 (+ L (* (- 1) B))))
      )
      (predh25_10 N1
            M1
            L1
            K1
            J1
            I1
            H1
            G1
            F1
            E1
            D1
            C1
            B1
            A1
            Z
            Y
            X
            W
            V
            U
            T
            S
            R
            Q
            P
            O
            N
            M
            L
            K
            J
            I
            H
            G
            F
            O1
            D
            C
            B
            A)
    )
  )
)
(assert
  (forall ( (A Int) (B Int) (C Int) (D Int) (E Int) (F Int) (G Int) (H Int) (I Int) (J Int) (K Int) (L Int) (M Int) (N Int) (O Int) (P Int) (Q Int) (R Int) (S Int) (T Int) (U Int) (V Int) (W Int) (X Int) (Y Int) (Z Int) (A1 Int) (B1 Int) (C1 Int) (D1 Int) (E1 Int) (F1 Int) (G1 Int) (H1 Int) (I1 Int) (J1 Int) (K1 Int) (L1 Int) (M1 Int) (N1 Int) ) 
    (=>
      (and
        (predh18_12 N1
            M1
            L1
            K1
            J1
            I1
            H1
            G1
            F1
            E1
            D1
            C1
            B1
            A1
            Z
            Y
            X
            W
            V
            U
            T
            S
            R
            Q
            P
            O
            N
            M
            L
            K
            J
            I
            H
            G
            F
            E
            D
            C
            B
            A)
        (and (<= 0 A) (<= 0 (+ (* (- 1) N) A)))
      )
      (predh21_11 N1
            M1
            L1
            K1
            J1
            I1
            H1
            G1
            F1
            E1
            D1
            C1
            B1
            A1
            Z
            Y
            X
            W
            V
            U
            T
            S
            R
            Q
            P
            O
            N
            M
            L
            K
            J
            I
            H
            G
            F
            E
            D
            C
            B
            A)
    )
  )
)
(assert
  (forall ( (A Int) (B Int) (C Int) (D Int) (E Int) (F Int) (G Int) (H Int) (I Int) (J Int) (K Int) (L Int) (M Int) (N Int) (O Int) (P Int) (Q Int) (R Int) (S Int) (T Int) (U Int) (V Int) (W Int) (X Int) (Y Int) (Z Int) (A1 Int) (B1 Int) (C1 Int) (D1 Int) (E1 Int) (F1 Int) (G1 Int) (H1 Int) (I1 Int) (J1 Int) (K1 Int) (L1 Int) (M1 Int) (N1 Int) ) 
    (=>
      (and
        (predh7_13 N1
           M1
           L1
           K1
           J1
           I1
           H1
           G1
           F1
           E1
           D1
           C1
           B1
           A1
           Z
           Y
           X
           W
           V
           U
           T
           S
           R
           Q
           P
           O
           N
           M
           L
           K
           J
           I
           H
           G
           F
           E
           D
           C
           B
           A)
        (and (<= 1 (+ Q (* (- 1) L)))
     (<= 0 (+ N (* (- 1) B)))
     (<= 0 B)
     (<= 1 (+ N (* (- 1) L))))
      )
      (predh18_12 N1
            M1
            L1
            K1
            J1
            I1
            H1
            G1
            F1
            E1
            D1
            C1
            B1
            A1
            Z
            Y
            X
            W
            V
            U
            T
            S
            R
            Q
            P
            O
            N
            M
            L
            K
            J
            I
            H
            G
            F
            E
            D
            C
            B
            A)
    )
  )
)
(assert
  (forall ( (A Int) (B Int) (C Int) (D Int) (E Int) (F Int) (G Int) (H Int) (I Int) (J Int) (K Int) (L Int) (M Int) (N Int) (O Int) (P Int) (Q Int) (R Int) (S Int) (T Int) (U Int) (V Int) (W Int) (X Int) (Y Int) (Z Int) (A1 Int) (B1 Int) (C1 Int) (D1 Int) (E1 Int) (F1 Int) (G1 Int) (H1 Int) (I1 Int) (J1 Int) (K1 Int) (L1 Int) (M1 Int) (N1 Int) (O1 Int) (P1 Int) ) 
    (=>
      (and
        (predh83_14 P1
            O1
            N1
            M1
            L1
            K1
            J1
            I1
            H1
            G1
            F1
            E1
            D1
            C1
            B1
            A1
            Z
            Y
            X
            W
            V
            U
            T
            S
            R
            Q
            P
            O
            N
            M
            L
            K
            J
            I
            H
            G
            F
            E
            D
            C)
        (and (= B (+ Q P)) (= A (+ 2 N)))
      )
      (predh7_13 P1
           O1
           N1
           M1
           L1
           K1
           J1
           I1
           H1
           G1
           F1
           E1
           D1
           C1
           B1
           A1
           Z
           Y
           X
           W
           V
           U
           T
           S
           R
           Q
           B
           O
           A
           M
           L
           K
           J
           I
           H
           G
           F
           E
           D
           C)
    )
  )
)
(assert
  (forall ( (A Int) (B Int) (C Int) (D Int) (E Int) (F Int) (G Int) (H Int) (I Int) (J Int) (K Int) (L Int) (M Int) (N Int) (O Int) (P Int) (Q Int) (R Int) (S Int) (T Int) (U Int) (V Int) (W Int) (X Int) (Y Int) (Z Int) (A1 Int) (B1 Int) (C1 Int) (D1 Int) (E1 Int) (F1 Int) (G1 Int) (H1 Int) (I1 Int) (J1 Int) (K1 Int) (L1 Int) (M1 Int) (N1 Int) ) 
    (=>
      (and
        (predh73_15 N1
            M1
            L1
            K1
            J1
            I1
            H1
            G1
            F1
            E1
            D1
            C1
            B1
            A1
            Z
            Y
            X
            W
            V
            U
            T
            S
            R
            Q
            P
            O
            N
            M
            L
            K
            J
            I
            H
            G
            F
            E
            D
            C
            B
            A)
        (and (<= 0 (+ O (* (- 1) N))) (<= 2 O))
      )
      (predh83_14 N1
            M1
            L1
            K1
            J1
            I1
            H1
            G1
            F1
            E1
            D1
            C1
            B1
            A1
            Z
            Y
            X
            W
            V
            U
            T
            S
            R
            Q
            P
            O
            N
            M
            L
            K
            J
            I
            H
            G
            F
            E
            D
            C
            B
            A)
    )
  )
)
(assert
  (forall ( (A Int) (B Int) (C Int) (D Int) (E Int) (F Int) (G Int) (H Int) (I Int) (J Int) (K Int) (L Int) (M Int) (N Int) (O Int) (P Int) (Q Int) (R Int) (S Int) (T Int) (U Int) (V Int) (W Int) (X Int) (Y Int) (Z Int) (A1 Int) (B1 Int) (C1 Int) (D1 Int) (E1 Int) (F1 Int) (G1 Int) (H1 Int) (I1 Int) (J1 Int) (K1 Int) (L1 Int) (M1 Int) (N1 Int) ) 
    (=>
      (and
        (predh17_16 N1
            M1
            L1
            K1
            J1
            I1
            H1
            G1
            F1
            E1
            D1
            C1
            B1
            A1
            Z
            Y
            X
            W
            V
            U
            T
            S
            R
            Q
            P
            O
            N
            M
            L
            K
            J
            I
            H
            G
            F
            E
            D
            C
            B
            A)
        true
      )
      (predh73_15 N1
            M1
            L1
            K1
            J1
            I1
            H1
            G1
            F1
            E1
            D1
            C1
            B1
            A1
            Z
            Y
            X
            W
            V
            U
            T
            S
            R
            Q
            P
            O
            N
            M
            L
            K
            J
            I
            H
            G
            F
            E
            D
            C
            B
            A)
    )
  )
)
(assert
  (forall ( (A Int) (B Int) (C Int) (D Int) (E Int) (F Int) (G Int) (H Int) (I Int) (J Int) (K Int) (L Int) (M Int) (N Int) (O Int) (P Int) (Q Int) (R Int) (S Int) (T Int) (U Int) (V Int) (W Int) (X Int) (Y Int) (Z Int) (A1 Int) (B1 Int) (C1 Int) (D1 Int) (E1 Int) (F1 Int) (G1 Int) (H1 Int) (I1 Int) (J1 Int) (K1 Int) (L1 Int) (M1 Int) (N1 Int) (O1 Int) ) 
    (=>
      (and
        (predh7_17 N1
           M1
           L1
           K1
           J1
           I1
           H1
           G1
           F1
           E1
           D1
           C1
           B1
           A1
           Z
           Y
           X
           W
           V
           U
           T
           S
           R
           Q
           P
           O
           N
           M
           L
           K
           J
           I
           H
           G
           F
           E
           D
           C
           B
           A)
        (and (<= 1 (+ Q (* (- 1) L)))
     (<= 0 (+ (* (- 1) N) L))
     (= 0 (+ (* 2 O1) (* (- 1) Q))))
      )
      (predh17_16 N1
            M1
            L1
            K1
            J1
            I1
            H1
            G1
            F1
            E1
            D1
            C1
            B1
            A1
            Z
            Y
            X
            W
            V
            U
            T
            S
            R
            Q
            P
            O1
            N
            M
            L
            K
            J
            I
            H
            G
            F
            E
            D
            C
            B
            A)
    )
  )
)
(assert
  (forall ( (A Int) (B Int) (C Int) (D Int) (E Int) (F Int) (G Int) (H Int) (I Int) (J Int) (K Int) (L Int) (M Int) (N Int) (O Int) (P Int) (Q Int) (R Int) (S Int) (T Int) (U Int) (v_21 Int) (v_22 Int) (v_23 Int) (v_24 Int) (v_25 Int) (v_26 Int) (v_27 Int) (v_28 Int) (v_29 Int) (v_30 Int) (v_31 Int) (v_32 Int) (v_33 Int) (v_34 Int) (v_35 Int) (v_36 Int) (v_37 Int) (v_38 Int) (v_39 Int) ) 
    (=>
      (and
        (and (<= 2 O)
     (= v_21 P)
     (= v_22 O)
     (= v_23 N)
     (= v_24 M)
     (= v_25 L)
     (= 1 v_26)
     (= v_27 K)
     (= 1 v_28)
     (= v_29 J)
     (= v_30 I)
     (= v_31 H)
     (= v_32 G)
     (= v_33 F)
     (= v_34 E)
     (= v_35 D)
     (= v_36 C)
     (= v_37 B)
     (= 1 v_38)
     (= v_39 A))
      )
      (predh7_17 P
           O
           N
           U
           M
           L
           T
           K
           S
           J
           I
           H
           G
           F
           E
           D
           C
           B
           R
           Q
           v_21
           v_22
           v_23
           A
           v_24
           v_25
           v_26
           v_27
           v_28
           v_29
           v_30
           v_31
           v_32
           v_33
           v_34
           v_35
           v_36
           v_37
           v_38
           v_39)
    )
  )
)
(assert
  (forall ( (A Int) (B Int) (C Int) (D Int) (E Int) (F Int) (G Int) (H Int) (I Int) (J Int) (K Int) (L Int) (M Int) (N Int) (O Int) (P Int) (Q Int) (R Int) (S Int) (T Int) (U Int) (V Int) (W Int) (X Int) (Y Int) (Z Int) (A1 Int) (B1 Int) (C1 Int) (D1 Int) (E1 Int) (F1 Int) (G1 Int) (H1 Int) (I1 Int) (J1 Int) (K1 Int) (L1 Int) (M1 Int) (N1 Int) ) 
    (=>
      (and
        (predh57_1 N1
           M1
           L1
           K1
           J1
           I1
           H1
           G1
           F1
           E1
           D1
           C1
           B1
           A1
           Z
           Y
           X
           W
           V
           U
           T
           S
           R
           Q
           P
           O
           N
           M
           L
           K
           J
           I
           H
           G
           F
           E
           D
           C
           B
           A)
        true
      )
      false
    )
  )
)

(check-sat)
(exit)
